\LP file generated from the problem `Slots selection' by the
\Xpress Builder Component Library Xpress BCL

Minimize
obj: 10 X_(0,1,0) + 10 X_(0,1,1) + 10 X_(0,1,2) + 10 X_(0,1,3) + 10 X_(0,2,0) + 
10 X_(0,2,1) + 10 X_(0,2,2) + 10 X_(0,2,3) + 10 X_(0,3,0) + 10 X_(0,3,1) + 10 X_(0,3,2) + 
10 X_(0,3,3) + 10 X_(0,4,0) + 10 X_(0,4,1) + 10 X_(0,4,2) + 10 X_(0,4,3) + 5 X_(0,5,0) + 
5 X_(0,5,1) + 5 X_(0,5,2) + 5 X_(0,5,3) + 5 X_(0,6,0) + 5 X_(0,6,1) + 5 X_(0,6,2) + 
5 X_(0,6,3) + 5 X_(0,7,0) + 5 X_(0,7,1) + 5 X_(1,5,2) + 5 X_(1,5,3) + 5 X_(1,6,0) + 
5 X_(1,6,1) + 5 X_(1,6,2) + 5 X_(1,6,3) + 5 X_(1,7,0) + 5 X_(1,7,1) + 5 X_(1,7,2) + 
5 X_(1,7,3) + 5 X_(1,8,0) + 5 X_(1,8,1) + 5 X_(1,8,2) + 5 X_(1,8,3) + 10 X_(1,9,0) + 
10 X_(1,9,1) + 10 X_(1,9,2) + 10 X_(1,9,3) + 10 X_(2,1,0) + 10 X_(2,1,1) + 10 X_(2,1,2) + 
10 X_(2,1,3) + 10 X_(2,2,0) + 10 X_(2,2,1) + 10 X_(2,2,2) + 10 X_(2,2,3) + 10 X_(2,3,0) + 
10 X_(2,3,1) + 10 X_(2,3,2) + 10 X_(2,3,3) + 10 X_(2,4,0) + 10 X_(2,4,1) + 10 X_(2,4,2) + 
10 X_(2,4,3) + 5 X_(2,5,0) + 5 X_(2,5,1) + 5 X_(2,5,2) + 5 X_(2,5,3) + 5 X_(2,6,0) + 
5 X_(2,6,1) + 5 X_(2,6,2) + 5 X_(2,6,3) + 5 X_(2,7,0) + 5 X_(2,7,1) + 5 X_(2,7,2) + 
5 X_(2,7,3) + 5 X_(2,8,0) + 5 X_(2,8,1) + 5 X_(2,8,2) + 5 X_(2,8,3) + 10 X_(2,9,0) + 
10 X_(2,9,1) + 10 X_(2,9,2) + 10 X_(2,9,3) + 10 X_(3,1,0) + 10 X_(3,1,1) + 10 X_(3,1,2) + 
10 X_(3,1,3) + 10 X_(3,2,0) + 10 X_(3,2,1) + 10 X_(3,2,2) + 10 X_(3,2,3) + 10 X_(3,3,0) + 
10 X_(3,3,1) + 10 X_(3,3,2) + 10 X_(3,3,3) + 10 X_(3,4,0) + 10 X_(3,4,1) + 10 X_(3,4,2) + 
10 X_(3,4,3) + 5 X_(3,5,0) + 5 X_(3,5,1) + 5 X_(3,5,2) + 5 X_(3,5,3) + 5 X_(3,6,0) + 
5 X_(3,6,1) + 5 X_(3,6,2) + 5 X_(3,6,3) + 5 X_(3,7,0) + 5 X_(3,7,1) + 5 X_(3,7,2) + 
5 X_(3,7,3) + 5 X_(3,8,0) + 5 X_(3,8,1) + 5 X_(3,8,2) + 5 X_(3,8,3) + 10 X_(3,9,0) + 
10 X_(3,9,1) + 10 X_(3,9,2) + 10 X_(3,9,3) + 10 X_(4,1,0) + 10 X_(4,1,1) + 10 X_(4,1,2) + 
10 X_(4,1,3) + 10 X_(4,2,0) + 10 X_(4,2,1) + 10 X_(4,2,2) + 10 X_(4,2,3) + 10 X_(4,3,0) + 
10 X_(4,3,1) + 10 X_(4,3,2) + 10 X_(4,3,3) + 10 X_(4,4,0) + 10 X_(4,4,1) + 10 X_(4,4,2) + 
10 X_(4,4,3) + 5 X_(4,5,0) + 5 X_(4,5,1) + 5 X_(4,5,2) + 5 X_(4,5,3) + 5 X_(4,6,0) + 
5 X_(4,6,1) + 5 X_(4,6,2) + 5 X_(4,6,3) + 5 X_(4,7,0) + 5 X_(4,7,1) + 5 X_(4,7,2) + 
5 X_(4,7,3) + 5 X_(4,8,0) + 5 X_(4,8,1) + 5 X_(4,8,2) + 5 X_(4,8,3) + 10 X_(4,9,0) + 
10 X_(4,9,1) + 10 X_(4,9,2) + 10 X_(4,9,3) + 10 X_(5,1,0) + 10 X_(5,1,1) + 10 X_(5,1,2) + 
10 X_(5,1,3) + 10 X_(5,2,0) + 10 X_(5,2,1) + 10 X_(5,2,2) + 10 X_(5,2,3) + 10 X_(5,3,0) + 
10 X_(5,3,1) + 10 X_(5,3,2) + 10 X_(5,3,3) + 10 X_(5,4,0) + 10 X_(5,4,1) + 10 X_(5,4,2) + 
10 X_(5,4,3) + 5 X_(5,5,0) + 5 X_(5,5,1) + 5 X_(5,5,2) + 5 X_(5,5,3) + 5 X_(5,6,0) + 
5 X_(5,6,1) + 5 X_(5,6,2) + 5 X_(5,6,3) + 5 X_(5,7,0) + 5 X_(5,7,1) + 5 X_(5,7,2) + 
5 X_(5,7,3) + 5 X_(5,8,0) + 5 X_(5,8,1) + 5 X_(5,8,2) + 5 X_(5,8,3) + 10 X_(5,9,0) + 
10 X_(5,9,1) + 10 X_(5,9,2) + 10 X_(5,9,3) + 10 X_(6,1,0) + 10 X_(6,1,1) + 10 X_(6,1,2) + 
10 X_(6,1,3) + 10 X_(6,2,0) + 10 X_(6,2,1) + 10 X_(6,2,2) + 10 X_(6,2,3) + 10 X_(6,3,0) + 
10 X_(6,3,1) + 10 X_(6,3,2) + 10 X_(6,3,3) + 10 X_(6,4,0) + 10 X_(6,4,1) + 10 X_(6,4,2) + 
10 X_(6,4,3) + 5 X_(6,5,0) + 5 X_(6,5,1) + 5 X_(6,5,2) + 5 X_(6,5,3) + 5 X_(6,6,0) + 
5 X_(6,6,1) + 5 X_(6,6,2) + 5 X_(6,6,3) + 5 X_(6,7,0) + 5 X_(6,7,1) + 5 X_(6,7,2) + 
5 X_(6,7,3) + 5 X_(6,8,0) + 5 X_(6,8,1) + 5 X_(6,8,2) + 5 X_(6,8,3) + 10 X_(6,9,0) + 
10 X_(6,9,1) + 10 X_(6,9,2) + 10 X_(6,9,3) + 10 X_(7,1,0) + 10 X_(7,1,1) + 10 X_(7,1,2) + 
10 X_(7,1,3) + 10 X_(7,2,0) + 10 X_(7,2,1) + 10 X_(7,2,2) + 10 X_(7,2,3) + 10 X_(7,3,0) + 
10 X_(7,3,1) + 10 X_(7,3,2) + 10 X_(7,3,3) + 10 X_(7,4,0) + 10 X_(7,4,1) + 10 X_(7,4,2) + 
10 X_(7,4,3) + 5 X_(7,5,0) + 5 X_(7,5,1) + 5 X_(7,5,2) + 5 X_(7,5,3) + 5 X_(7,6,0) + 
5 X_(7,6,1) + 5 X_(7,6,2) + 5 X_(7,6,3) + 5 X_(7,7,0) + 5 X_(7,7,1) + 5 X_(7,7,2) + 
5 X_(7,7,3) + 5 X_(7,8,0) + 5 X_(7,8,1) + 5 X_(7,8,2) + 5 X_(7,8,3) + 10 X_(7,9,0) + 
10 X_(7,9,1) + 10 X_(7,9,2) + 10 X_(7,9,3) + 10 X_(8,1,0) + 10 X_(8,1,1) + 10 X_(8,1,2) + 
10 X_(8,1,3) + 10 X_(8,2,0) + 10 X_(8,2,1) + 10 X_(8,2,2) + 10 X_(8,2,3) + 10 X_(8,3,0) + 
10 X_(8,3,1) + 10 X_(8,3,2) + 10 X_(8,3,3) + 10 X_(8,4,0) + 10 X_(8,4,1) + 10 X_(8,4,2) + 
10 X_(8,4,3) + 5 X_(8,5,0) + 5 X_(8,5,1) + 5 X_(8,5,2) + 5 X_(8,5,3) + 5 X_(8,6,0) + 
5 X_(8,6,1) + 5 X_(8,6,2) + 5 X_(8,6,3) + 5 X_(8,7,0) + 5 X_(8,7,1) + 5 X_(8,7,2) + 
5 X_(8,7,3) + 5 X_(8,8,0) + 5 X_(8,8,1) + 5 X_(8,8,2) + 5 X_(8,8,3) + 10 X_(8,9,0) + 
10 X_(8,9,1) + 10 X_(8,9,2) + 10 X_(8,9,3) + 10 X_(9,1,0) + 10 X_(9,1,1) + 10 X_(9,1,2) + 
10 X_(9,1,3) + 10 X_(9,2,0) + 10 X_(9,2,1) + 10 X_(9,2,2) + 10 X_(9,2,3) + 10 X_(9,3,0) + 
10 X_(9,3,1) + 10 X_(9,3,2) + 10 X_(9,3,3) + 10 X_(9,4,0) + 10 X_(9,4,1) + 10 X_(9,4,2) + 
10 X_(9,4,3) + 5 X_(9,5,0) + 5 X_(9,5,1) + 5 X_(9,5,2) + 5 X_(9,5,3) + 5 X_(9,6,0) + 
5 X_(9,6,1) + 5 X_(9,6,2) + 5 X_(9,6,3) + 5 X_(9,7,0) + 5 X_(9,7,1) + 5 X_(9,7,2) + 
5 X_(9,7,3) + 5 X_(9,8,0) + 5 X_(9,8,1) + 5 X_(9,8,2) + 5 X_(9,8,3) + 10 X_(9,9,0) + 
10 X_(9,9,1) + 10 X_(9,9,2) + 10 X_(9,9,3) + 10 X_(10,1,0) + 10 X_(10,1,1) + 
10 X_(10,1,2) + 10 X_(10,1,3) + 10 X_(10,2,0) + 10 X_(10,2,1) + 10 X_(10,2,2) + 
10 X_(10,2,3) + 10 X_(10,3,0) + 10 X_(10,3,1) + 10 X_(10,3,2) + 10 X_(10,3,3) + 
10 X_(10,4,0) + 10 X_(10,4,1) + 10 X_(10,4,2) + 10 X_(10,4,3) + 5 X_(10,5,0) + 
5 X_(10,5,1) + 5 X_(10,5,2) + 5 X_(10,5,3) + 5 X_(10,6,0) + 5 X_(10,6,1) + 5 X_(10,6,2) + 
5 X_(10,6,3) + 5 X_(10,7,0) + 5 X_(10,7,1) + 5 X_(10,7,2) + 5 X_(10,7,3) + 5 X_(10,8,0) + 
5 X_(10,8,1) + 5 X_(10,8,2) + 5 X_(10,8,3) + 10 X_(10,9,0) + 10 X_(10,9,1) + 
10 X_(10,9,2) + 10 X_(10,9,3) + 5 X_(0,7,2) + 5 X_(0,7,3) + 5 X_(0,8,0) + 5 X_(0,8,1) + 
5 X_(0,8,2) + 5 X_(0,8,3) + 10 X_(0,9,0) + 10 X_(0,9,1) + 10 X_(0,9,2) + 10 X_(0,9,3) + 
10 X_(1,1,0) + 10 X_(1,1,1) + 10 X_(1,1,2) + 10 X_(1,1,3) + 10 X_(1,2,0) + 10 X_(1,2,1) + 
10 X_(1,2,2) + 10 X_(1,2,3) + 10 X_(1,3,0) + 10 X_(1,3,1) + 10 X_(1,3,2) + 10 X_(1,3,3) + 
10 X_(1,4,0) + 10 X_(1,4,1) + 10 X_(1,4,2) + 10 X_(1,4,3) + 5 X_(1,5,0) + 5 X_(1,5,1)

Subject To
balance_35: 10 X_(1,9,3) + 10 X_(2,9,3) + 10 X_(3,9,3) + 10 X_(4,9,3) + 10 X_(5,9,3) + 
10 X_(6,9,3) + 10 X_(7,9,3) + 10 X_(8,9,3) - 10 X_(9,1,3) - 10 X_(9,2,3) - 10 X_(9,3,3) - 
10 X_(9,4,3) - 10 X_(9,5,3) - 10 X_(9,6,3) - 10 X_(9,7,3) - 10 X_(9,8,3) - 10 X_(9,10,3) + 
10 X_(0,9,3) = 0
balance_34: 10 X_(1,8,3) + 10 X_(2,8,3) + 10 X_(3,8,3) + 10 X_(4,8,3) + 10 X_(5,8,3) + 
10 X_(6,8,3) + 10 X_(7,8,3) - 10 X_(8,1,3) - 10 X_(8,2,3) - 10 X_(8,3,3) - 10 X_(8,4,3) - 
10 X_(8,5,3) - 10 X_(8,6,3) - 10 X_(8,7,3) - 10 X_(8,9,3) - 10 X_(8,10,3) + 
10 X_(9,8,3) + 10 X_(0,8,3) = 0
balance_33: 10 X_(1,7,3) + 10 X_(2,7,3) + 10 X_(3,7,3) + 10 X_(4,7,3) + 10 X_(5,7,3) + 
10 X_(6,7,3) - 10 X_(7,1,3) - 10 X_(7,2,3) - 10 X_(7,3,3) - 10 X_(7,4,3) - 10 X_(7,5,3) - 
10 X_(7,6,3) - 10 X_(7,8,3) - 10 X_(7,9,3) - 10 X_(7,10,3) + 10 X_(8,7,3) + 
10 X_(9,7,3) + 10 X_(0,7,3) = 0
balance_32: 10 X_(0,6,3) + 10 X_(1,6,3) + 10 X_(2,6,3) + 10 X_(3,6,3) + 10 X_(4,6,3) + 
10 X_(5,6,3) - 10 X_(6,1,3) - 10 X_(6,2,3) - 10 X_(6,3,3) - 10 X_(6,4,3) - 10 X_(6,5,3) - 
10 X_(6,7,3) - 10 X_(6,8,3) - 10 X_(6,9,3) - 10 X_(6,10,3) + 10 X_(7,6,3) + 
10 X_(8,6,3) + 10 X_(9,6,3) = 0
balance_31: 10 X_(0,5,3) + 10 X_(1,5,3) + 10 X_(2,5,3) + 10 X_(3,5,3) + 10 X_(4,5,3) - 
10 X_(5,1,3) - 10 X_(5,2,3) - 10 X_(5,3,3) - 10 X_(5,4,3) - 10 X_(5,6,3) - 10 X_(5,7,3) - 
10 X_(5,8,3) - 10 X_(5,9,3) - 10 X_(5,10,3) + 10 X_(6,5,3) + 10 X_(7,5,3) + 
10 X_(8,5,3) + 10 X_(9,5,3) = 0
balance_30: 10 X_(0,4,3) + 10 X_(2,4,3) + 10 X_(3,4,3) - 10 X_(4,1,3) - 10 X_(4,2,3) - 
10 X_(4,3,3) - 10 X_(4,5,3) - 10 X_(4,6,3) - 10 X_(4,7,3) - 10 X_(4,8,3) - 10 X_(4,9,3) - 
10 X_(4,10,3) + 10 X_(5,4,3) + 10 X_(6,4,3) + 10 X_(7,4,3) + 10 X_(8,4,3) + 
10 X_(9,4,3) + 10 X_(1,4,3) = 0
balance_29: 10 X_(0,3,3) + 10 X_(2,3,3) - 10 X_(3,1,3) - 10 X_(3,2,3) - 10 X_(3,4,3) - 
10 X_(3,5,3) - 10 X_(3,6,3) - 10 X_(3,7,3) - 10 X_(3,8,3) - 10 X_(3,9,3) - 10 X_(3,10,3) + 
10 X_(4,3,3) + 10 X_(5,3,3) + 10 X_(6,3,3) + 10 X_(7,3,3) + 10 X_(8,3,3) + 10 X_(9,3,3) + 
10 X_(1,3,3) = 0
balance_28: 10 X_(0,2,3) - 10 X_(2,1,3) - 10 X_(2,3,3) - 10 X_(2,4,3) - 10 X_(2,5,3) - 
10 X_(2,6,3) - 10 X_(2,7,3) - 10 X_(2,8,3) - 10 X_(2,9,3) - 10 X_(2,10,3) + 
10 X_(3,2,3) + 10 X_(4,2,3) + 10 X_(5,2,3) + 10 X_(6,2,3) + 10 X_(7,2,3) + 10 X_(8,2,3) + 
10 X_(9,2,3) + 10 X_(1,2,3) = 0
balance_27: 10 X_(0,1,3) - 10 X_(1,5,3) - 10 X_(1,6,3) - 10 X_(1,7,3) - 10 X_(1,8,3) - 
10 X_(1,9,3) - 10 X_(1,10,3) + 10 X_(2,1,3) + 10 X_(3,1,3) + 10 X_(4,1,3) + 
10 X_(5,1,3) + 10 X_(6,1,3) + 10 X_(7,1,3) + 10 X_(8,1,3) + 10 X_(9,1,3) - 10 X_(1,2,3) - 
10 X_(1,3,3) - 10 X_(1,4,3) = 0
balance_26: 10 X_(1,9,2) + 10 X_(2,9,2) + 10 X_(3,9,2) + 10 X_(4,9,2) + 10 X_(5,9,2) + 
10 X_(6,9,2) + 10 X_(7,9,2) + 10 X_(8,9,2) - 10 X_(9,1,2) - 10 X_(9,2,2) - 10 X_(9,3,2) - 
10 X_(9,4,2) - 10 X_(9,5,2) - 10 X_(9,6,2) - 10 X_(9,7,2) - 10 X_(9,8,2) - 10 X_(9,10,2) + 
10 X_(0,9,2) = 0
balance_25: 10 X_(1,8,2) + 10 X_(2,8,2) + 10 X_(3,8,2) + 10 X_(4,8,2) + 10 X_(5,8,2) + 
10 X_(6,8,2) + 10 X_(7,8,2) - 10 X_(8,1,2) - 10 X_(8,2,2) - 10 X_(8,3,2) - 10 X_(8,4,2) - 
10 X_(8,5,2) - 10 X_(8,6,2) - 10 X_(8,7,2) - 10 X_(8,9,2) - 10 X_(8,10,2) + 
10 X_(9,8,2) + 10 X_(0,8,2) = 0
balance_24: 10 X_(1,7,2) + 10 X_(2,7,2) + 10 X_(3,7,2) + 10 X_(4,7,2) + 10 X_(5,7,2) + 
10 X_(6,7,2) - 10 X_(7,1,2) - 10 X_(7,2,2) - 10 X_(7,3,2) - 10 X_(7,4,2) - 10 X_(7,5,2) - 
10 X_(7,6,2) - 10 X_(7,8,2) - 10 X_(7,9,2) - 10 X_(7,10,2) + 10 X_(8,7,2) + 
10 X_(9,7,2) + 10 X_(0,7,2) = 0
balance_23: 10 X_(0,6,2) + 10 X_(1,6,2) + 10 X_(2,6,2) + 10 X_(3,6,2) + 10 X_(4,6,2) + 
10 X_(5,6,2) - 10 X_(6,1,2) - 10 X_(6,2,2) - 10 X_(6,3,2) - 10 X_(6,4,2) - 10 X_(6,5,2) - 
10 X_(6,7,2) - 10 X_(6,8,2) - 10 X_(6,9,2) - 10 X_(6,10,2) + 10 X_(7,6,2) + 
10 X_(8,6,2) + 10 X_(9,6,2) = 0
balance_22: 10 X_(0,5,2) + 10 X_(1,5,2) + 10 X_(2,5,2) + 10 X_(3,5,2) + 10 X_(4,5,2) - 
10 X_(5,1,2) - 10 X_(5,2,2) - 10 X_(5,3,2) - 10 X_(5,4,2) - 10 X_(5,6,2) - 10 X_(5,7,2) - 
10 X_(5,8,2) - 10 X_(5,9,2) - 10 X_(5,10,2) + 10 X_(6,5,2) + 10 X_(7,5,2) + 
10 X_(8,5,2) + 10 X_(9,5,2) = 0
balance_21: 10 X_(0,4,2) + 10 X_(2,4,2) + 10 X_(3,4,2) - 10 X_(4,1,2) - 10 X_(4,2,2) - 
10 X_(4,3,2) - 10 X_(4,5,2) - 10 X_(4,6,2) - 10 X_(4,7,2) - 10 X_(4,8,2) - 10 X_(4,9,2) - 
10 X_(4,10,2) + 10 X_(5,4,2) + 10 X_(6,4,2) + 10 X_(7,4,2) + 10 X_(8,4,2) + 
10 X_(9,4,2) + 10 X_(1,4,2) = 0
balance_20: 10 X_(0,3,2) + 10 X_(2,3,2) - 10 X_(3,1,2) - 10 X_(3,2,2) - 10 X_(3,4,2) - 
10 X_(3,5,2) - 10 X_(3,6,2) - 10 X_(3,7,2) - 10 X_(3,8,2) - 10 X_(3,9,2) - 10 X_(3,10,2) + 
10 X_(4,3,2) + 10 X_(5,3,2) + 10 X_(6,3,2) + 10 X_(7,3,2) + 10 X_(8,3,2) + 10 X_(9,3,2) + 
10 X_(1,3,2) = 0
balance_19: 10 X_(0,2,2) - 10 X_(2,1,2) - 10 X_(2,3,2) - 10 X_(2,4,2) - 10 X_(2,5,2) - 
10 X_(2,6,2) - 10 X_(2,7,2) - 10 X_(2,8,2) - 10 X_(2,9,2) - 10 X_(2,10,2) + 
10 X_(3,2,2) + 10 X_(4,2,2) + 10 X_(5,2,2) + 10 X_(6,2,2) + 10 X_(7,2,2) + 10 X_(8,2,2) + 
10 X_(9,2,2) + 10 X_(1,2,2) = 0
balance_18: 10 X_(0,1,2) - 10 X_(1,5,2) - 10 X_(1,6,2) - 10 X_(1,7,2) - 10 X_(1,8,2) - 
10 X_(1,9,2) - 10 X_(1,10,2) + 10 X_(2,1,2) + 10 X_(3,1,2) + 10 X_(4,1,2) + 
10 X_(5,1,2) + 10 X_(6,1,2) + 10 X_(7,1,2) + 10 X_(8,1,2) + 10 X_(9,1,2) - 10 X_(1,2,2) - 
10 X_(1,3,2) - 10 X_(1,4,2) = 0
balance_17: 10 X_(1,9,1) + 10 X_(2,9,1) + 10 X_(3,9,1) + 10 X_(4,9,1) + 10 X_(5,9,1) + 
10 X_(6,9,1) + 10 X_(7,9,1) + 10 X_(8,9,1) - 10 X_(9,1,1) - 10 X_(9,2,1) - 10 X_(9,3,1) - 
10 X_(9,4,1) - 10 X_(9,5,1) - 10 X_(9,6,1) - 10 X_(9,7,1) - 10 X_(9,8,1) - 10 X_(9,10,1) + 
10 X_(0,9,1) = 0
balance_16: 10 X_(1,8,1) + 10 X_(2,8,1) + 10 X_(3,8,1) + 10 X_(4,8,1) + 10 X_(5,8,1) + 
10 X_(6,8,1) + 10 X_(7,8,1) - 10 X_(8,1,1) - 10 X_(8,2,1) - 10 X_(8,3,1) - 10 X_(8,4,1) - 
10 X_(8,5,1) - 10 X_(8,6,1) - 10 X_(8,7,1) - 10 X_(8,9,1) - 10 X_(8,10,1) + 
10 X_(9,8,1) + 10 X_(0,8,1) = 0
balance_15: 10 X_(0,7,1) + 10 X_(1,7,1) + 10 X_(2,7,1) + 10 X_(3,7,1) + 10 X_(4,7,1) + 
10 X_(5,7,1) + 10 X_(6,7,1) - 10 X_(7,1,1) - 10 X_(7,2,1) - 10 X_(7,3,1) - 10 X_(7,4,1) - 
10 X_(7,5,1) - 10 X_(7,6,1) - 10 X_(7,8,1) - 10 X_(7,9,1) - 10 X_(7,10,1) + 
10 X_(8,7,1) + 10 X_(9,7,1) = 0
balance_14: 10 X_(0,6,1) + 10 X_(1,6,1) + 10 X_(2,6,1) + 10 X_(3,6,1) + 10 X_(4,6,1) + 
10 X_(5,6,1) - 10 X_(6,1,1) - 10 X_(6,2,1) - 10 X_(6,3,1) - 10 X_(6,4,1) - 10 X_(6,5,1) - 
10 X_(6,7,1) - 10 X_(6,8,1) - 10 X_(6,9,1) - 10 X_(6,10,1) + 10 X_(7,6,1) + 
10 X_(8,6,1) + 10 X_(9,6,1) = 0
balance_13: 10 X_(0,5,1) + 10 X_(2,5,1) + 10 X_(3,5,1) + 10 X_(4,5,1) - 10 X_(5,1,1) - 
10 X_(5,2,1) - 10 X_(5,3,1) - 10 X_(5,4,1) - 10 X_(5,6,1) - 10 X_(5,7,1) - 10 X_(5,8,1) - 
10 X_(5,9,1) - 10 X_(5,10,1) + 10 X_(6,5,1) + 10 X_(7,5,1) + 10 X_(8,5,1) + 
10 X_(9,5,1) + 10 X_(1,5,1) = 0
balance_12: 10 X_(0,4,1) + 10 X_(2,4,1) + 10 X_(3,4,1) - 10 X_(4,1,1) - 10 X_(4,2,1) - 
10 X_(4,3,1) - 10 X_(4,5,1) - 10 X_(4,6,1) - 10 X_(4,7,1) - 10 X_(4,8,1) - 10 X_(4,9,1) - 
10 X_(4,10,1) + 10 X_(5,4,1) + 10 X_(6,4,1) + 10 X_(7,4,1) + 10 X_(8,4,1) + 
10 X_(9,4,1) + 10 X_(1,4,1) = 0
balance_11: 10 X_(0,3,1) + 10 X_(2,3,1) - 10 X_(3,1,1) - 10 X_(3,2,1) - 10 X_(3,4,1) - 
10 X_(3,5,1) - 10 X_(3,6,1) - 10 X_(3,7,1) - 10 X_(3,8,1) - 10 X_(3,9,1) - 10 X_(3,10,1) + 
10 X_(4,3,1) + 10 X_(5,3,1) + 10 X_(6,3,1) + 10 X_(7,3,1) + 10 X_(8,3,1) + 10 X_(9,3,1) + 
10 X_(1,3,1) = 0
balance_10: 10 X_(0,2,1) - 10 X_(2,1,1) - 10 X_(2,3,1) - 10 X_(2,4,1) - 10 X_(2,5,1) - 
10 X_(2,6,1) - 10 X_(2,7,1) - 10 X_(2,8,1) - 10 X_(2,9,1) - 10 X_(2,10,1) + 
10 X_(3,2,1) + 10 X_(4,2,1) + 10 X_(5,2,1) + 10 X_(6,2,1) + 10 X_(7,2,1) + 10 X_(8,2,1) + 
10 X_(9,2,1) + 10 X_(1,2,1) = 0
balance_9: 10 X_(0,1,1) - 10 X_(1,6,1) - 10 X_(1,7,1) - 10 X_(1,8,1) - 10 X_(1,9,1) - 
10 X_(1,10,1) + 10 X_(2,1,1) + 10 X_(3,1,1) + 10 X_(4,1,1) + 10 X_(5,1,1) + 
10 X_(6,1,1) + 10 X_(7,1,1) + 10 X_(8,1,1) + 10 X_(9,1,1) - 10 X_(1,2,1) - 10 X_(1,3,1) - 
10 X_(1,4,1) - 10 X_(1,5,1) = 0
balance_8: 10 X_(1,9,0) + 10 X_(2,9,0) + 10 X_(3,9,0) + 10 X_(4,9,0) + 10 X_(5,9,0) + 
10 X_(6,9,0) + 10 X_(7,9,0) + 10 X_(8,9,0) - 10 X_(9,1,0) - 10 X_(9,2,0) - 10 X_(9,3,0) - 
10 X_(9,4,0) - 10 X_(9,5,0) - 10 X_(9,6,0) - 10 X_(9,7,0) - 10 X_(9,8,0) - 10 X_(9,10,0) + 
10 X_(0,9,0) = 0
balance_7: 10 X_(1,8,0) + 10 X_(2,8,0) + 10 X_(3,8,0) + 10 X_(4,8,0) + 10 X_(5,8,0) + 
10 X_(6,8,0) + 10 X_(7,8,0) - 10 X_(8,1,0) - 10 X_(8,2,0) - 10 X_(8,3,0) - 10 X_(8,4,0) - 
10 X_(8,5,0) - 10 X_(8,6,0) - 10 X_(8,7,0) - 10 X_(8,9,0) - 10 X_(8,10,0) + 
10 X_(9,8,0) + 10 X_(0,8,0) = 0
balance_6: 10 X_(0,7,0) + 10 X_(1,7,0) + 10 X_(2,7,0) + 10 X_(3,7,0) + 10 X_(4,7,0) + 
10 X_(5,7,0) + 10 X_(6,7,0) - 10 X_(7,1,0) - 10 X_(7,2,0) - 10 X_(7,3,0) - 10 X_(7,4,0) - 
10 X_(7,5,0) - 10 X_(7,6,0) - 10 X_(7,8,0) - 10 X_(7,9,0) - 10 X_(7,10,0) + 
10 X_(8,7,0) + 10 X_(9,7,0) = 0
balance_5: 10 X_(0,6,0) + 10 X_(1,6,0) + 10 X_(2,6,0) + 10 X_(3,6,0) + 10 X_(4,6,0) + 
10 X_(5,6,0) - 10 X_(6,1,0) - 10 X_(6,2,0) - 10 X_(6,3,0) - 10 X_(6,4,0) - 10 X_(6,5,0) - 
10 X_(6,7,0) - 10 X_(6,8,0) - 10 X_(6,9,0) - 10 X_(6,10,0) + 10 X_(7,6,0) + 
10 X_(8,6,0) + 10 X_(9,6,0) = 0
balance_4: 10 X_(0,5,0) + 10 X_(2,5,0) + 10 X_(3,5,0) + 10 X_(4,5,0) - 10 X_(5,1,0) - 
10 X_(5,2,0) - 10 X_(5,3,0) - 10 X_(5,4,0) - 10 X_(5,6,0) - 10 X_(5,7,0) - 10 X_(5,8,0) - 
10 X_(5,9,0) - 10 X_(5,10,0) + 10 X_(6,5,0) + 10 X_(7,5,0) + 10 X_(8,5,0) + 
10 X_(9,5,0) + 10 X_(1,5,0) = 0
balance_3: 10 X_(0,4,0) + 10 X_(2,4,0) + 10 X_(3,4,0) - 10 X_(4,1,0) - 10 X_(4,2,0) - 
10 X_(4,3,0) - 10 X_(4,5,0) - 10 X_(4,6,0) - 10 X_(4,7,0) - 10 X_(4,8,0) - 10 X_(4,9,0) - 
10 X_(4,10,0) + 10 X_(5,4,0) + 10 X_(6,4,0) + 10 X_(7,4,0) + 10 X_(8,4,0) + 
10 X_(9,4,0) + 10 X_(1,4,0) = 0
balance_2: 10 X_(0,3,0) + 10 X_(2,3,0) - 10 X_(3,1,0) - 10 X_(3,2,0) - 10 X_(3,4,0) - 
10 X_(3,5,0) - 10 X_(3,6,0) - 10 X_(3,7,0) - 10 X_(3,8,0) - 10 X_(3,9,0) - 10 X_(3,10,0) + 
10 X_(4,3,0) + 10 X_(5,3,0) + 10 X_(6,3,0) + 10 X_(7,3,0) + 10 X_(8,3,0) + 10 X_(9,3,0) + 
10 X_(1,3,0) = 0
balance_1: 10 X_(0,2,0) - 10 X_(2,1,0) - 10 X_(2,3,0) - 10 X_(2,4,0) - 10 X_(2,5,0) - 
10 X_(2,6,0) - 10 X_(2,7,0) - 10 X_(2,8,0) - 10 X_(2,9,0) - 10 X_(2,10,0) + 
10 X_(3,2,0) + 10 X_(4,2,0) + 10 X_(5,2,0) + 10 X_(6,2,0) + 10 X_(7,2,0) + 10 X_(8,2,0) + 
10 X_(9,2,0) + 10 X_(1,2,0) = 0
balance: 10 X_(0,1,0) - 10 X_(1,6,0) - 10 X_(1,7,0) - 10 X_(1,8,0) - 10 X_(1,9,0) - 
10 X_(1,10,0) + 10 X_(2,1,0) + 10 X_(3,1,0) + 10 X_(4,1,0) + 10 X_(5,1,0) + 
10 X_(6,1,0) + 10 X_(7,1,0) + 10 X_(8,1,0) + 10 X_(9,1,0) - 10 X_(1,2,0) - 10 X_(1,3,0) - 
10 X_(1,4,0) - 10 X_(1,5,0) = 0
depot to depot no connection_3: X_(0,10,3) = 0
depot to depot no connection_2: X_(0,10,2) = 0
depot to depot no connection_1: X_(0,10,1) = 0
depot to depot no connection: X_(0,10,0) = 0
vehicle going from depot close_3: X_(10,0,3) + X_(10,1,3) + X_(10,2,3) + X_(10,3,3) + 
X_(10,4,3) + X_(10,5,3) + X_(10,6,3) + X_(10,7,3) + X_(10,8,3) + X_(10,9,3) + 
X_(10,10,3) = 0
vehicle going from depot close_2: X_(10,0,2) + X_(10,1,2) + X_(10,2,2) + X_(10,3,2) + 
X_(10,4,2) + X_(10,5,2) + X_(10,6,2) + X_(10,7,2) + X_(10,8,2) + X_(10,9,2) + 
X_(10,10,2) = 0
vehicle going from depot close_1: X_(10,0,1) + X_(10,1,1) + X_(10,2,1) + X_(10,3,1) + 
X_(10,4,1) + X_(10,5,1) + X_(10,6,1) + X_(10,7,1) + X_(10,8,1) + X_(10,9,1) + 
X_(10,10,1) = 0
vehicle going from depot close: X_(10,0,0) + X_(10,1,0) + X_(10,2,0) + X_(10,3,0) + 
X_(10,4,0) + X_(10,5,0) + X_(10,6,0) + X_(10,7,0) + X_(10,8,0) + X_(10,9,0) + 
X_(10,10,0) = 0
vehicle going from depot_7: X_(0,1,3) + X_(0,2,3) + X_(0,3,3) + X_(0,4,3) + 
X_(0,5,3) + X_(0,6,3) + X_(0,7,3) + X_(0,8,3) + X_(0,9,3) + X_(0,10,3) = 1
vehicle going from depot_6: X_(0,1,2) + X_(0,2,2) + X_(0,3,2) + X_(0,4,2) + 
X_(0,5,2) + X_(0,6,2) + X_(0,7,2) + X_(0,8,2) + X_(0,9,2) + X_(0,10,2) = 1
vehicle going from depot_5: X_(0,1,1) + X_(0,2,1) + X_(0,3,1) + X_(0,4,1) + 
X_(0,5,1) + X_(0,6,1) + X_(0,7,1) + X_(0,8,1) + X_(0,9,1) + X_(0,10,1) = 1
vehicle going from depot_4: X_(0,1,0) + X_(0,2,0) + X_(0,3,0) + X_(0,4,0) + 
X_(0,5,0) + X_(0,6,0) + X_(0,7,0) + X_(0,8,0) + X_(0,9,0) + X_(0,10,0) = 1
vehicle going from depot_3: X_(1,10,3) + X_(2,10,3) + X_(3,10,3) + X_(4,10,3) + 
X_(5,10,3) + X_(6,10,3) + X_(7,10,3) + X_(8,10,3) + X_(9,10,3) + X_(10,10,3) = 1
vehicle going from depot_2: X_(1,10,2) + X_(2,10,2) + X_(3,10,2) + X_(4,10,2) + 
X_(5,10,2) + X_(6,10,2) + X_(7,10,2) + X_(8,10,2) + X_(9,10,2) + X_(10,10,2) = 1
vehicle going from depot_1: X_(1,10,1) + X_(2,10,1) + X_(3,10,1) + X_(4,10,1) + 
X_(5,10,1) + X_(6,10,1) + X_(7,10,1) + X_(8,10,1) + X_(9,10,1) + X_(10,10,1) = 1
vehicle going from depot: X_(1,10,0) + X_(2,10,0) + X_(3,10,0) + X_(4,10,0) + 
X_(5,10,0) + X_(6,10,0) + X_(7,10,0) + X_(8,10,0) + X_(9,10,0) + X_(10,10,0) = 1
one visit_52: X_(1,9,0) + X_(1,9,1) + X_(1,9,2) + X_(1,9,3) + X_(2,9,0) + X_(2,9,1) + 
X_(2,9,2) + X_(2,9,3) + X_(3,9,0) + X_(3,9,1) + X_(3,9,2) + X_(3,9,3) + X_(4,9,0) + 
X_(4,9,1) + X_(4,9,2) + X_(4,9,3) + X_(5,9,0) + X_(5,9,1) + X_(5,9,2) + X_(5,9,3) + 
X_(6,9,0) + X_(6,9,1) + X_(6,9,2) + X_(6,9,3) + X_(7,9,0) + X_(7,9,1) + X_(7,9,2) + 
X_(7,9,3) + X_(8,9,0) + X_(8,9,1) + X_(8,9,2) + X_(8,9,3) + X_(9,9,0) + X_(9,9,1) + 
X_(9,9,2) + X_(9,9,3) + X_(0,9,0) + X_(0,9,1) + X_(0,9,2) + X_(0,9,3) <= 1
one visit_51: X_(1,8,0) + X_(1,8,1) + X_(1,8,2) + X_(1,8,3) + X_(2,8,0) + X_(2,8,1) + 
X_(2,8,2) + X_(2,8,3) + X_(3,8,0) + X_(3,8,1) + X_(3,8,2) + X_(3,8,3) + X_(4,8,0) + 
X_(4,8,1) + X_(4,8,2) + X_(4,8,3) + X_(5,8,0) + X_(5,8,1) + X_(5,8,2) + X_(5,8,3) + 
X_(6,8,0) + X_(6,8,1) + X_(6,8,2) + X_(6,8,3) + X_(7,8,0) + X_(7,8,1) + X_(7,8,2) + 
X_(7,8,3) + X_(8,8,0) + X_(8,8,1) + X_(8,8,2) + X_(8,8,3) + X_(9,8,0) + X_(9,8,1) + 
X_(9,8,2) + X_(9,8,3) + X_(0,8,0) + X_(0,8,1) + X_(0,8,2) + X_(0,8,3) <= 1
one visit_50: X_(0,7,0) + X_(0,7,1) + X_(1,7,0) + X_(1,7,1) + X_(1,7,2) + X_(1,7,3) + 
X_(2,7,0) + X_(2,7,1) + X_(2,7,2) + X_(2,7,3) + X_(3,7,0) + X_(3,7,1) + X_(3,7,2) + 
X_(3,7,3) + X_(4,7,0) + X_(4,7,1) + X_(4,7,2) + X_(4,7,3) + X_(5,7,0) + X_(5,7,1) + 
X_(5,7,2) + X_(5,7,3) + X_(6,7,0) + X_(6,7,1) + X_(6,7,2) + X_(6,7,3) + X_(7,7,0) + 
X_(7,7,1) + X_(7,7,2) + X_(7,7,3) + X_(8,7,0) + X_(8,7,1) + X_(8,7,2) + X_(8,7,3) + 
X_(9,7,0) + X_(9,7,1) + X_(9,7,2) + X_(9,7,3) + X_(0,7,2) + X_(0,7,3) <= 1
one visit_49: X_(0,6,0) + X_(0,6,1) + X_(0,6,2) + X_(0,6,3) + X_(1,6,0) + X_(1,6,1) + 
X_(1,6,2) + X_(1,6,3) + X_(2,6,0) + X_(2,6,1) + X_(2,6,2) + X_(2,6,3) + X_(3,6,0) + 
X_(3,6,1) + X_(3,6,2) + X_(3,6,3) + X_(4,6,0) + X_(4,6,1) + X_(4,6,2) + X_(4,6,3) + 
X_(5,6,0) + X_(5,6,1) + X_(5,6,2) + X_(5,6,3) + X_(6,6,0) + X_(6,6,1) + X_(6,6,2) + 
X_(6,6,3) + X_(7,6,0) + X_(7,6,1) + X_(7,6,2) + X_(7,6,3) + X_(8,6,0) + X_(8,6,1) + 
X_(8,6,2) + X_(8,6,3) + X_(9,6,0) + X_(9,6,1) + X_(9,6,2) + X_(9,6,3) <= 1
one visit_48: X_(0,5,0) + X_(0,5,1) + X_(0,5,2) + X_(0,5,3) + X_(1,5,2) + X_(1,5,3) + 
X_(2,5,0) + X_(2,5,1) + X_(2,5,2) + X_(2,5,3) + X_(3,5,0) + X_(3,5,1) + X_(3,5,2) + 
X_(3,5,3) + X_(4,5,0) + X_(4,5,1) + X_(4,5,2) + X_(4,5,3) + X_(5,5,0) + X_(5,5,1) + 
X_(5,5,2) + X_(5,5,3) + X_(6,5,0) + X_(6,5,1) + X_(6,5,2) + X_(6,5,3) + X_(7,5,0) + 
X_(7,5,1) + X_(7,5,2) + X_(7,5,3) + X_(8,5,0) + X_(8,5,1) + X_(8,5,2) + X_(8,5,3) + 
X_(9,5,0) + X_(9,5,1) + X_(9,5,2) + X_(9,5,3) + X_(1,5,0) + X_(1,5,1) <= 1
one visit_47: X_(0,4,0) + X_(0,4,1) + X_(0,4,2) + X_(0,4,3) + X_(2,4,0) + X_(2,4,1) + 
X_(2,4,2) + X_(2,4,3) + X_(3,4,0) + X_(3,4,1) + X_(3,4,2) + X_(3,4,3) + X_(4,4,0) + 
X_(4,4,1) + X_(4,4,2) + X_(4,4,3) + X_(5,4,0) + X_(5,4,1) + X_(5,4,2) + X_(5,4,3) + 
X_(6,4,0) + X_(6,4,1) + X_(6,4,2) + X_(6,4,3) + X_(7,4,0) + X_(7,4,1) + X_(7,4,2) + 
X_(7,4,3) + X_(8,4,0) + X_(8,4,1) + X_(8,4,2) + X_(8,4,3) + X_(9,4,0) + X_(9,4,1) + 
X_(9,4,2) + X_(9,4,3) + X_(1,4,0) + X_(1,4,1) + X_(1,4,2) + X_(1,4,3) <= 1
one visit_46: X_(0,3,0) + X_(0,3,1) + X_(0,3,2) + X_(0,3,3) + X_(2,3,0) + X_(2,3,1) + 
X_(2,3,2) + X_(2,3,3) + X_(3,3,0) + X_(3,3,1) + X_(3,3,2) + X_(3,3,3) + X_(4,3,0) + 
X_(4,3,1) + X_(4,3,2) + X_(4,3,3) + X_(5,3,0) + X_(5,3,1) + X_(5,3,2) + X_(5,3,3) + 
X_(6,3,0) + X_(6,3,1) + X_(6,3,2) + X_(6,3,3) + X_(7,3,0) + X_(7,3,1) + X_(7,3,2) + 
X_(7,3,3) + X_(8,3,0) + X_(8,3,1) + X_(8,3,2) + X_(8,3,3) + X_(9,3,0) + X_(9,3,1) + 
X_(9,3,2) + X_(9,3,3) + X_(1,3,0) + X_(1,3,1) + X_(1,3,2) + X_(1,3,3) <= 1
one visit_45: X_(0,2,0) + X_(0,2,1) + X_(0,2,2) + X_(0,2,3) + X_(2,2,0) + X_(2,2,1) + 
X_(2,2,2) + X_(2,2,3) + X_(3,2,0) + X_(3,2,1) + X_(3,2,2) + X_(3,2,3) + X_(4,2,0) + 
X_(4,2,1) + X_(4,2,2) + X_(4,2,3) + X_(5,2,0) + X_(5,2,1) + X_(5,2,2) + X_(5,2,3) + 
X_(6,2,0) + X_(6,2,1) + X_(6,2,2) + X_(6,2,3) + X_(7,2,0) + X_(7,2,1) + X_(7,2,2) + 
X_(7,2,3) + X_(8,2,0) + X_(8,2,1) + X_(8,2,2) + X_(8,2,3) + X_(9,2,0) + X_(9,2,1) + 
X_(9,2,2) + X_(9,2,3) + X_(1,2,0) + X_(1,2,1) + X_(1,2,2) + X_(1,2,3) <= 1
one visit_44: X_(0,1,0) + X_(0,1,1) + X_(0,1,2) + X_(0,1,3) + X_(2,1,0) + X_(2,1,1) + 
X_(2,1,2) + X_(2,1,3) + X_(3,1,0) + X_(3,1,1) + X_(3,1,2) + X_(3,1,3) + X_(4,1,0) + 
X_(4,1,1) + X_(4,1,2) + X_(4,1,3) + X_(5,1,0) + X_(5,1,1) + X_(5,1,2) + X_(5,1,3) + 
X_(6,1,0) + X_(6,1,1) + X_(6,1,2) + X_(6,1,3) + X_(7,1,0) + X_(7,1,1) + X_(7,1,2) + 
X_(7,1,3) + X_(8,1,0) + X_(8,1,1) + X_(8,1,2) + X_(8,1,3) + X_(9,1,0) + X_(9,1,1) + 
X_(9,1,2) + X_(9,1,3) + X_(1,1,0) + X_(1,1,1) + X_(1,1,2) + X_(1,1,3) <= 1
one visit_43: X_(10,10,3) = 0
one visit_42: X_(10,10,2) = 0
one visit_41: X_(10,10,1) = 0
one visit_40: X_(10,10,0) = 0
one visit_39: X_(9,9,3) = 0
one visit_38: X_(9,9,2) = 0
one visit_37: X_(9,9,1) = 0
one visit_36: X_(9,9,0) = 0
one visit_35: X_(8,8,3) = 0
one visit_34: X_(8,8,2) = 0
one visit_33: X_(8,8,1) = 0
one visit_32: X_(8,8,0) = 0
one visit_31: X_(7,7,3) = 0
one visit_30: X_(7,7,2) = 0
one visit_29: X_(7,7,1) = 0
one visit_28: X_(7,7,0) = 0
one visit_27: X_(6,6,3) = 0
one visit_26: X_(6,6,2) = 0
one visit_25: X_(6,6,1) = 0
one visit_24: X_(6,6,0) = 0
one visit_23: X_(5,5,3) = 0
one visit_22: X_(5,5,2) = 0
one visit_21: X_(5,5,1) = 0
one visit_20: X_(5,5,0) = 0
one visit_19: X_(4,4,3) = 0
one visit_18: X_(4,4,2) = 0
one visit_17: X_(4,4,1) = 0
one visit_16: X_(4,4,0) = 0
one visit_15: X_(3,3,3) = 0
one visit_14: X_(3,3,2) = 0
one visit_13: X_(3,3,1) = 0
one visit_12: X_(3,3,0) = 0
one visit_11: X_(2,2,3) = 0
one visit_10: X_(2,2,2) = 0
one visit_9: X_(2,2,1) = 0
one visit_8: X_(2,2,0) = 0
one visit_7: X_(1,1,3) = 0
one visit_6: X_(1,1,2) = 0
one visit_5: X_(1,1,1) = 0
one visit_4: X_(1,1,0) = 0
one visit_3: X_(0,0,3) = 0
one visit_2: X_(0,0,2) = 0
one visit_1: X_(0,0,1) = 0
one visit: X_(0,0,0) = 0

Bounds

Binaries
X_(0,0,0) X_(0,0,1) X_(0,0,2) X_(0,0,3) X_(0,1,0) X_(0,1,1) X_(0,1,2) X_(0,1,3) 
X_(0,2,0) X_(0,2,1) X_(0,2,2) X_(0,2,3) X_(0,3,0) X_(0,3,1) X_(0,3,2) X_(0,3,3) 
X_(0,4,0) X_(0,4,1) X_(0,4,2) X_(0,4,3) X_(0,5,0) X_(0,5,1) X_(0,5,2) X_(0,5,3) 
X_(0,6,0) X_(0,6,1) X_(0,6,2) X_(0,6,3) X_(0,7,0) X_(0,7,1) X_(0,7,2) X_(0,7,3) 
X_(0,8,0) X_(0,8,1) X_(0,8,2) X_(0,8,3) X_(0,9,0) X_(0,9,1) X_(0,9,2) X_(0,9,3) 
X_(0,10,0) X_(0,10,1) X_(0,10,2) X_(0,10,3) X_(1,1,0) X_(1,1,1) X_(1,1,2) X_(1,1,3) 
X_(1,2,0) X_(1,2,1) X_(1,2,2) X_(1,2,3) X_(1,3,0) X_(1,3,1) X_(1,3,2) X_(1,3,3) 
X_(1,4,0) X_(1,4,1) X_(1,4,2) X_(1,4,3) X_(1,5,0) X_(1,5,1) X_(1,5,2) X_(1,5,3) 
X_(1,6,0) X_(1,6,1) X_(1,6,2) X_(1,6,3) X_(1,7,0) X_(1,7,1) X_(1,7,2) X_(1,7,3) 
X_(1,8,0) X_(1,8,1) X_(1,8,2) X_(1,8,3) X_(1,9,0) X_(1,9,1) X_(1,9,2) X_(1,9,3) 
X_(1,10,0) X_(1,10,1) X_(1,10,2) X_(1,10,3) X_(2,1,0) X_(2,1,1) X_(2,1,2) X_(2,1,3) 
X_(2,2,0) X_(2,2,1) X_(2,2,2) X_(2,2,3) X_(2,3,0) X_(2,3,1) X_(2,3,2) X_(2,3,3) 
X_(2,4,0) X_(2,4,1) X_(2,4,2) X_(2,4,3) X_(2,5,0) X_(2,5,1) X_(2,5,2) X_(2,5,3) 
X_(2,6,0) X_(2,6,1) X_(2,6,2) X_(2,6,3) X_(2,7,0) X_(2,7,1) X_(2,7,2) X_(2,7,3) 
X_(2,8,0) X_(2,8,1) X_(2,8,2) X_(2,8,3) X_(2,9,0) X_(2,9,1) X_(2,9,2) X_(2,9,3) 
X_(2,10,0) X_(2,10,1) X_(2,10,2) X_(2,10,3) X_(3,1,0) X_(3,1,1) X_(3,1,2) X_(3,1,3) 
X_(3,2,0) X_(3,2,1) X_(3,2,2) X_(3,2,3) X_(3,3,0) X_(3,3,1) X_(3,3,2) X_(3,3,3) 
X_(3,4,0) X_(3,4,1) X_(3,4,2) X_(3,4,3) X_(3,5,0) X_(3,5,1) X_(3,5,2) X_(3,5,3) 
X_(3,6,0) X_(3,6,1) X_(3,6,2) X_(3,6,3) X_(3,7,0) X_(3,7,1) X_(3,7,2) X_(3,7,3) 
X_(3,8,0) X_(3,8,1) X_(3,8,2) X_(3,8,3) X_(3,9,0) X_(3,9,1) X_(3,9,2) X_(3,9,3) 
X_(3,10,0) X_(3,10,1) X_(3,10,2) X_(3,10,3) X_(4,1,0) X_(4,1,1) X_(4,1,2) X_(4,1,3) 
X_(4,2,0) X_(4,2,1) X_(4,2,2) X_(4,2,3) X_(4,3,0) X_(4,3,1) X_(4,3,2) X_(4,3,3) 
X_(4,4,0) X_(4,4,1) X_(4,4,2) X_(4,4,3) X_(4,5,0) X_(4,5,1) X_(4,5,2) X_(4,5,3) 
X_(4,6,0) X_(4,6,1) X_(4,6,2) X_(4,6,3) X_(4,7,0) X_(4,7,1) X_(4,7,2) X_(4,7,3) 
X_(4,8,0) X_(4,8,1) X_(4,8,2) X_(4,8,3) X_(4,9,0) X_(4,9,1) X_(4,9,2) X_(4,9,3) 
X_(4,10,0) X_(4,10,1) X_(4,10,2) X_(4,10,3) X_(5,1,0) X_(5,1,1) X_(5,1,2) X_(5,1,3) 
X_(5,2,0) X_(5,2,1) X_(5,2,2) X_(5,2,3) X_(5,3,0) X_(5,3,1) X_(5,3,2) X_(5,3,3) 
X_(5,4,0) X_(5,4,1) X_(5,4,2) X_(5,4,3) X_(5,5,0) X_(5,5,1) X_(5,5,2) X_(5,5,3) 
X_(5,6,0) X_(5,6,1) X_(5,6,2) X_(5,6,3) X_(5,7,0) X_(5,7,1) X_(5,7,2) X_(5,7,3) 
X_(5,8,0) X_(5,8,1) X_(5,8,2) X_(5,8,3) X_(5,9,0) X_(5,9,1) X_(5,9,2) X_(5,9,3) 
X_(5,10,0) X_(5,10,1) X_(5,10,2) X_(5,10,3) X_(6,1,0) X_(6,1,1) X_(6,1,2) X_(6,1,3) 
X_(6,2,0) X_(6,2,1) X_(6,2,2) X_(6,2,3) X_(6,3,0) X_(6,3,1) X_(6,3,2) X_(6,3,3) 
X_(6,4,0) X_(6,4,1) X_(6,4,2) X_(6,4,3) X_(6,5,0) X_(6,5,1) X_(6,5,2) X_(6,5,3) 
X_(6,6,0) X_(6,6,1) X_(6,6,2) X_(6,6,3) X_(6,7,0) X_(6,7,1) X_(6,7,2) X_(6,7,3) 
X_(6,8,0) X_(6,8,1) X_(6,8,2) X_(6,8,3) X_(6,9,0) X_(6,9,1) X_(6,9,2) X_(6,9,3) 
X_(6,10,0) X_(6,10,1) X_(6,10,2) X_(6,10,3) X_(7,1,0) X_(7,1,1) X_(7,1,2) X_(7,1,3) 
X_(7,2,0) X_(7,2,1) X_(7,2,2) X_(7,2,3) X_(7,3,0) X_(7,3,1) X_(7,3,2) X_(7,3,3) 
X_(7,4,0) X_(7,4,1) X_(7,4,2) X_(7,4,3) X_(7,5,0) X_(7,5,1) X_(7,5,2) X_(7,5,3) 
X_(7,6,0) X_(7,6,1) X_(7,6,2) X_(7,6,3) X_(7,7,0) X_(7,7,1) X_(7,7,2) X_(7,7,3) 
X_(7,8,0) X_(7,8,1) X_(7,8,2) X_(7,8,3) X_(7,9,0) X_(7,9,1) X_(7,9,2) X_(7,9,3) 
X_(7,10,0) X_(7,10,1) X_(7,10,2) X_(7,10,3) X_(8,1,0) X_(8,1,1) X_(8,1,2) X_(8,1,3) 
X_(8,2,0) X_(8,2,1) X_(8,2,2) X_(8,2,3) X_(8,3,0) X_(8,3,1) X_(8,3,2) X_(8,3,3) 
X_(8,4,0) X_(8,4,1) X_(8,4,2) X_(8,4,3) X_(8,5,0) X_(8,5,1) X_(8,5,2) X_(8,5,3) 
X_(8,6,0) X_(8,6,1) X_(8,6,2) X_(8,6,3) X_(8,7,0) X_(8,7,1) X_(8,7,2) X_(8,7,3) 
X_(8,8,0) X_(8,8,1) X_(8,8,2) X_(8,8,3) X_(8,9,0) X_(8,9,1) X_(8,9,2) X_(8,9,3) 
X_(8,10,0) X_(8,10,1) X_(8,10,2) X_(8,10,3) X_(9,1,0) X_(9,1,1) X_(9,1,2) X_(9,1,3) 
X_(9,2,0) X_(9,2,1) X_(9,2,2) X_(9,2,3) X_(9,3,0) X_(9,3,1) X_(9,3,2) X_(9,3,3) 
X_(9,4,0) X_(9,4,1) X_(9,4,2) X_(9,4,3) X_(9,5,0) X_(9,5,1) X_(9,5,2) X_(9,5,3) 
X_(9,6,0) X_(9,6,1) X_(9,6,2) X_(9,6,3) X_(9,7,0) X_(9,7,1) X_(9,7,2) X_(9,7,3) 
X_(9,8,0) X_(9,8,1) X_(9,8,2) X_(9,8,3) X_(9,9,0) X_(9,9,1) X_(9,9,2) X_(9,9,3) 
X_(9,10,0) X_(9,10,1) X_(9,10,2) X_(9,10,3) X_(10,0,0) X_(10,0,1) X_(10,0,2) 
X_(10,0,3) X_(10,1,0) X_(10,1,1) X_(10,1,2) X_(10,1,3) X_(10,2,0) X_(10,2,1) 
X_(10,2,2) X_(10,2,3) X_(10,3,0) X_(10,3,1) X_(10,3,2) X_(10,3,3) X_(10,4,0) 
X_(10,4,1) X_(10,4,2) X_(10,4,3) X_(10,5,0) X_(10,5,1) X_(10,5,2) X_(10,5,3) 
X_(10,6,0) X_(10,6,1) X_(10,6,2) X_(10,6,3) X_(10,7,0) X_(10,7,1) X_(10,7,2) 
X_(10,7,3) X_(10,8,0) X_(10,8,1) X_(10,8,2) X_(10,8,3) X_(10,9,0) X_(10,9,1) 
X_(10,9,2) X_(10,9,3) X_(10,10,0) X_(10,10,1) X_(10,10,2) X_(10,10,3) 

End
